
List of user-set options:

                                    Name   Value                used
                           compl_inf_tol = 1                     yes
                         constr_viol_tol = 1                     yes
                            dual_inf_tol = 1000                  yes
                           linear_solver = ma97                  yes
                              ma86_small = 1e-30                  no
                                  ma86_u = 0.0001                 no
                              ma97_order = best                  yes
                              ma97_small = 1e-30                 yes
                            ma97_switch1 = at_start              yes
                            ma97_switch2 = od_hd_reuse           yes
                                  ma97_u = 1e-06                 yes
                               ma97_umax = 0.5                   yes
                                max_iter = 1000                  yes
                    max_refinement_steps = 20                    yes
                    min_refinement_steps = 5                     yes
                                 mu_init = 1e-06                 yes
           mu_superlinear_decrease_power = 1.25                  yes
                   nlp_scaling_min_value = 1e-08                 yes
                        option_file_name = Preset_Case_954_pf.opt  yes
                             output_file = ./tmp/Preset_Case_954_pf.output  yes
                      print_user_options = yes                   yes
        required_infeasibility_reduction = 1                      no
                                     tol = 1e-08                 yes
                   warm_start_bound_frac = 1e-20                 yes
                   warm_start_bound_push = 1e-20                 yes
                   warm_start_init_point = yes                   yes
              warm_start_mult_bound_push = 1e-20                 yes
                warm_start_mult_init_max = 1e+40                 yes
             warm_start_slack_bound_frac = 1e-20                 yes
             warm_start_slack_bound_push = 1e-20                 yes

******************************************************************************
This program contains Ipopt, a library for large-scale nonlinear optimization.
 Ipopt is released as open source code under the Eclipse Public License (EPL).
         For more information visit http://projects.coin-or.org/Ipopt
******************************************************************************

This is Ipopt version 3.12.10, running with linear solver ma97.

Number of nonzeros in equality constraint Jacobian...:   123443
Number of nonzeros in inequality constraint Jacobian.:      213
Number of nonzeros in Lagrangian Hessian.............:    49069

Total number of variables............................:    31591
                     variables with only lower bounds:    12912
                variables with lower and upper bounds:    15130
                     variables with only upper bounds:        0
Total number of equality constraints.................:    31483
Total number of inequality constraints...............:       25
        inequality constraints with only lower bounds:        4
   inequality constraints with lower and upper bounds:        0
        inequality constraints with only upper bounds:       21

iter    objective    inf_pr   inf_du lg(mu)  ||d||  lg(rg) alpha_du alpha_pr  ls
   0 -5.1562345e+00 4.07e-03 1.02e+00  -6.0 0.00e+00    -  0.00e+00 0.00e+00   0
   1 -5.1612884e+00 1.89e+00 1.79e+01  -6.0 3.68e+05    -  8.70e-05 5.75e-04h  1
   2 -5.1613011e+00 1.89e+00 6.94e+01  -6.0 7.38e+01  -4.0 2.95e-01 2.81e-04h  1
   3 -5.2157346e+00 1.72e+00 2.43e+02  -6.0 8.78e+03    -  4.77e-02 1.02e-01h  1
   4 -5.2851019e+00 1.50e+00 5.20e+02  -6.0 6.31e+03    -  3.94e-01 1.42e-01h  1
   5 -5.4772588e+00 9.44e+00 1.24e+03  -6.0 4.06e+03    -  4.07e-01 2.82e-01h  1
   6 -5.5864421e+00 1.00e+01 1.35e+03  -6.0 1.82e+03    -  5.69e-01 3.80e-01h  1
   7 -5.6324602e+00 8.91e+00 1.86e+03  -6.0 1.15e+03    -  2.06e-01 2.62e-01h  1
   8 -5.6580386e+00 7.80e+00 6.90e+03  -6.0 1.42e+03    -  1.46e-02 1.35e-01h  1
   9 -5.6617866e+00 6.78e+00 2.64e+03  -6.0 2.13e+01  -4.5 2.46e-01 1.31e-01h  1
iter    objective    inf_pr   inf_du lg(mu)  ||d||  lg(rg) alpha_du alpha_pr  ls
  10 -5.6907804e+00 1.14e-01 3.62e+04  -6.0 2.67e+01  -5.0 3.95e-02 9.87e-01f  1
  11 -5.6922374e+00 9.87e-02 1.16e+04  -6.0 1.98e+01  -5.4 4.30e-01 1.37e-01h  1
  12 -5.6922795e+00 9.87e-02 2.29e+04  -6.0 1.29e+03    -  6.67e-02 3.59e-04h  1
  13 -5.7392899e+00 4.42e+00 4.37e+04  -6.0 1.30e+03    -  7.32e-02 4.24e-01f  1
  14 -5.7451645e+00 1.73e+00 1.33e+05  -6.0 2.63e+01  -5.9 1.97e-01 6.09e-01h  1
  15 -5.7683079e+00 5.14e-01 3.33e+05  -6.0 4.04e+01  -6.4 4.84e-01 1.00e+00h  1
  16 -5.7703429e+00 4.91e-01 4.12e+05  -6.0 8.30e+01  -6.9 3.24e-01 4.86e-02h  1
  17 -5.7800769e+00 4.64e-01 3.04e+05  -6.0 1.89e+02  -7.3 1.74e-01 1.86e-01h  1
  18r-5.7800769e+00 4.64e-01 1.00e+03  -0.3 0.00e+00  -7.8 0.00e+00 1.58e-07R  2
  19r-5.7864692e+00 4.63e-01 1.00e+03  -0.3 1.04e+04    -  1.14e-05 3.01e-06f  1
iter    objective    inf_pr   inf_du lg(mu)  ||d||  lg(rg) alpha_du alpha_pr  ls
  20 -5.7862533e+00 4.48e-01 3.11e+04  -6.0 6.04e+01    -  1.24e-02 3.17e-02h  1
  21 -5.7809455e+00 3.96e-01 2.71e+04  -6.0 2.92e+01    -  3.17e-02 1.18e-01h  1
  22 -5.7796017e+00 2.91e-01 1.99e+04  -6.0 8.07e+00    -  1.60e-01 2.66e-01h  1
  23 -5.7825020e+00 2.08e-01 1.43e+04  -6.0 3.51e+00    -  6.05e-01 2.83e-01f  1
  24 -5.7812213e+00 9.69e-04 3.39e+01  -6.0 1.40e+00    -  8.48e-01 1.00e+00h  1
  25 -5.7934105e+00 9.71e-03 1.08e+02  -6.0 3.68e+00    -  5.64e-01 8.67e-01h  1
  26 -5.7981074e+00 8.55e-03 1.17e+02  -6.0 7.53e+00    -  6.65e-01 4.22e-01h  1
  27 -5.8022059e+00 1.13e-02 9.54e+01  -6.0 1.55e+01    -  9.56e-01 1.00e+00f  1
  28 -5.8088560e+00 1.30e-01 1.37e+02  -6.0 2.84e+02    -  5.00e-01 2.48e-01h  1
  29 -5.8234146e+00 1.76e+00 6.65e+01  -6.0 6.50e+02    -  3.46e-01 5.25e-01h  1
iter    objective    inf_pr   inf_du lg(mu)  ||d||  lg(rg) alpha_du alpha_pr  ls
  30 -5.8334236e+00 2.68e+00 3.62e+02  -6.0 5.98e+02    -  4.10e-01 6.03e-01h  1
  31 -5.8437430e+00 3.62e+00 3.26e+02  -6.0 7.37e+02    -  4.81e-01 5.30e-01h  1
  32 -5.8557506e+00 1.32e+01 3.73e+03  -6.0 9.18e+02    -  4.15e-01 1.00e+00h  1
  33 -5.8605291e+00 1.15e+01 2.91e+03  -6.0 1.62e+03  -7.4 1.47e-01 1.27e-01h  1
  34 -5.8663448e+00 8.13e+00 4.21e+03  -6.0 9.17e+02    -  3.11e-01 4.37e-01h  1
  35 -5.8700309e+00 5.10e+00 7.93e+02  -6.0 2.20e+02  -7.9 4.66e-01 3.80e-01h  1
  36 -5.8810888e+00 1.13e+01 3.05e+04  -6.0 9.84e+02  -7.4 2.74e-02 8.04e-01h  1
  37 -5.8876945e+00 9.51e+00 4.13e+04  -6.0 1.47e+03    -  1.09e-01 1.54e-01h  1
  38 -5.8980954e+00 7.65e+00 1.73e+04  -6.0 1.57e+03    -  2.27e-01 1.96e-01h  1
  39 -5.9135453e+00 5.82e+00 1.31e+05  -6.0 1.38e+03    -  4.20e-01 2.83e-01h  1
iter    objective    inf_pr   inf_du lg(mu)  ||d||  lg(rg) alpha_du alpha_pr  ls
  40 -5.9186222e+00 5.83e+00 1.95e+06  -6.0 1.75e+03    -  6.47e-01 9.26e-02h  1
  41r-5.9186222e+00 5.83e+00 1.00e+03   0.7 0.00e+00    -  0.00e+00 6.25e-08R  2
  42r-5.9303577e+00 5.83e+00 1.00e+03   0.7 2.18e+04    -  1.19e-06 5.30e-07f  1
  43 -5.9295239e+00 5.21e+00 6.82e+03  -6.0 3.88e+01    -  7.48e-02 1.06e-01h  1
  44 -5.9282007e+00 4.20e+00 6.22e+03  -6.0 3.29e+01    -  1.12e-01 1.94e-01h  1
  45 -5.9271930e+00 3.44e+00 5.09e+03  -6.0 2.47e+01    -  1.84e-01 1.82e-01h  1
  46 -5.9229086e+00 4.74e-03 7.21e+01  -6.0 1.88e+01    -  6.20e-01 1.00e+00h  1
  47 -5.9229541e+00 4.55e-03 1.15e+02  -6.0 4.30e-01    -  9.12e-01 3.97e-02h  1
  48 -5.9240455e+00 3.51e-03 8.95e+01  -6.0 5.84e+00    -  7.94e-01 2.29e-01f  1
  49 -5.9279903e+00 7.02e-03 4.54e+01  -6.0 4.27e+00  -5.2 9.25e-01 8.37e-01f  1
iter    objective    inf_pr   inf_du lg(mu)  ||d||  lg(rg) alpha_du alpha_pr  ls
  50 -5.9279090e+00 8.33e-04 6.08e+01  -6.0 1.39e+01  -5.7 8.45e-01 8.84e-01H  1
  51 -5.9320975e+00 4.72e-02 2.67e+00  -6.0 4.09e+01  -6.2 9.69e-01 1.00e+00f  1
  52 -5.9412526e+00 3.92e-01 6.22e+00  -6.0 1.18e+02  -6.6 9.35e-01 1.00e+00h  1
  53 -5.9552599e+00 7.88e+01 2.82e+01  -6.0 1.42e+04    -  4.77e-02 1.29e-01h  1
  54 -5.9552633e+00 7.84e+01 1.55e+05  -6.0 3.06e+01  -5.3 1.95e-02 5.50e-03h  1
  55 -5.9552667e+00 7.84e+01 6.03e+04  -6.0 7.54e+01  -5.8 1.65e-01 5.99e-04h  1
  56 -5.9552533e+00 5.36e+01 4.45e+04  -6.0 3.42e+01  -6.3 3.20e-02 3.16e-01h  1
  57 -5.9566084e+00 5.18e+01 4.32e+04  -6.0 3.05e+03    -  2.67e-01 3.54e-02h  1
  58 -5.9612538e+00 4.82e+01 3.80e+04  -6.0 3.01e+03    -  2.98e-01 1.19e-01h  1
  59 -5.9729964e+00 6.48e+01 2.23e+04  -6.0 3.29e+03    -  6.55e-01 4.12e-01h  1
iter    objective    inf_pr   inf_du lg(mu)  ||d||  lg(rg) alpha_du alpha_pr  ls
  60 -5.9749121e+00 5.09e+01 3.53e+04  -6.0 1.84e+03    -  9.01e-04 2.94e-01h  1
  61 -5.9763584e+00 3.15e+01 2.08e+04  -6.0 2.38e+03    -  3.32e-01 4.10e-01h  1
  62 -5.9818573e+00 2.88e+01 1.97e+04  -6.0 1.28e+03    -  4.83e-01 9.24e-01h  1
  63 -5.9835235e+00 2.38e+01 6.11e+04  -6.0 1.20e+03    -  6.15e-01 1.77e-01h  1
  64 -5.9902697e+00 1.38e+01 2.35e+04  -6.0 1.20e+03    -  6.52e-01 6.38e-01h  1
  65 -5.9971930e+00 1.99e+01 3.92e+04  -6.0 1.93e+03    -  3.62e-01 4.63e-01h  1
  66 -5.9987766e+00 1.87e+01 6.67e+05  -6.0 1.58e+03    -  6.30e-01 7.34e-02h  1
  67 -6.0130325e+00 6.76e+00 1.28e+05  -6.0 5.82e+02    -  2.13e-01 6.52e-01h  1
  68r-6.0130325e+00 6.76e+00 1.00e+03   0.7 0.00e+00    -  0.00e+00 3.21e-07R  2
  69r-6.0370477e+00 6.75e+00 1.43e+03   0.7 2.65e+04    -  1.17e-06 5.16e-07f  1
iter    objective    inf_pr   inf_du lg(mu)  ||d||  lg(rg) alpha_du alpha_pr  ls
  70 -6.0349328e+00 6.13e+00 2.67e+05  -6.0 9.77e+01    -  2.58e-01 9.24e-02h  1
  71 -6.0328562e+00 5.50e+00 2.85e+05  -6.0 6.92e+01    -  9.24e-02 1.02e-01h  1
  72 -6.0297438e+00 4.55e+00 2.35e+05  -6.0 4.26e+01    -  2.34e-01 1.74e-01h  1
  73 -6.0158659e+00 2.51e-03 3.63e+01  -6.0 1.29e+01    -  7.50e-01 1.00e+00h  1
  74 -6.0237168e+00 1.68e-03 5.82e+01  -6.0 2.64e+00    -  6.41e-01 1.00e+00h  1
  75 -6.0302985e+00 2.73e-03 2.74e+01  -6.0 2.70e+00    -  4.90e-01 1.00e+00h  1
  76 -6.0309744e+00 2.02e-03 8.23e+00  -6.0 3.54e+00    -  6.99e-01 1.00e+00h  1
  77 -6.0310207e+00 1.76e-03 2.92e+00  -6.0 9.17e+00    -  8.84e-01 1.00e+00h  1
  78 -6.0317020e+00 1.13e-02 7.21e-01  -6.0 2.52e+01    -  9.39e-01 1.00e+00h  1
  79 -6.0333434e+00 3.02e-01 5.53e+00  -6.0 1.71e+02    -  6.39e-01 1.00e+00h  1
iter    objective    inf_pr   inf_du lg(mu)  ||d||  lg(rg) alpha_du alpha_pr  ls
  80 -6.0333608e+00 7.98e-02 3.19e+00  -6.0 2.44e+00  -4.9 6.76e-01 7.36e-01h  1
  81 -6.0343020e+00 4.41e-01 2.32e+03  -6.0 6.13e+02    -  7.31e-01 2.32e-01h  1
  82 -6.0356340e+00 6.49e-01 5.09e+03  -6.0 8.53e+02    -  2.91e-01 1.41e-01h  1
  83 -6.0378254e+00 9.05e-01 1.10e+04  -6.0 5.26e+02    -  7.78e-01 3.64e-01h  1
  84 -6.0422011e+00 1.34e+00 1.29e+03  -6.0 4.70e+02    -  6.67e-01 7.77e-01h  1
  85 -6.0434827e+00 1.60e+00 1.08e+05  -6.0 1.69e+03    -  9.28e-01 1.48e-01h  1
  86 -6.0520852e+00 1.87e+01 2.64e+04  -6.0 1.02e+03    -  6.27e-01 1.00e+00h  1
  87 -6.0561053e+00 1.88e+01 2.21e+05  -6.0 1.99e+03    -  2.37e-02 2.85e-01h  1
  88 -6.0638399e+00 1.25e+01 3.74e+05  -6.0 6.95e+02    -  2.58e-01 4.07e-01h  1
  89r-6.0638399e+00 1.25e+01 1.00e+03   1.0 0.00e+00    -  0.00e+00 2.31e-07R  2
iter    objective    inf_pr   inf_du lg(mu)  ||d||  lg(rg) alpha_du alpha_pr  ls
  90r-6.0922616e+00 1.25e+01 2.67e+03   1.0 9.41e+04    -  3.90e-07 3.26e-07f  1
  91 -6.0893544e+00 1.12e+01 1.35e+05  -6.0 5.86e+00    -  1.83e-02 1.02e-01h  1
  92 -6.0838108e+00 8.81e+00 7.33e+04  -6.0 5.22e+00    -  1.02e-01 2.16e-01h  1
  93 -6.0775922e+00 6.08e+00 5.06e+04  -6.0 4.02e+00    -  5.09e-01 3.10e-01h  1
  94 -6.0646369e+00 2.28e-04 3.54e+01  -6.0 2.67e+00    -  7.58e-01 1.00e+00h  1
  95 -6.0685582e+00 8.47e-04 2.42e+01  -6.0 2.37e+00    -  7.17e-01 8.72e-01h  1
  96 -6.0722957e+00 1.74e-03 1.12e+01  -6.0 2.51e+00    -  7.07e-01 1.00e+00f  1
  97 -6.0714890e+00 5.10e-04 1.28e+00  -6.0 4.66e+00    -  8.86e-01 1.00e+00h  1
  98 -6.0713344e+00 1.09e-05 6.37e+02  -6.0 1.57e+01    -  9.85e-01 1.00e+00H  1
  99 -6.0718923e+00 1.57e-03 2.89e+03  -6.0 1.91e+02    -  9.58e-01 1.00e+00H  1
iter    objective    inf_pr   inf_du lg(mu)  ||d||  lg(rg) alpha_du alpha_pr  ls
 100 -6.0721217e+00 4.37e-04 7.29e+01  -6.0 4.21e+02    -  9.86e-01 1.00e+00H  1
 101 -6.0721319e+00 2.22e-04 1.95e+01  -6.0 5.02e+01    -  1.00e+00 1.00e+00H  1
 102 -6.0721319e+00 3.61e-07 7.38e-07  -6.0 1.53e-01    -  1.00e+00 1.00e+00h  1
 103 -6.0722457e+00 3.35e+00 4.23e+01  -7.5 5.78e+02    -  6.60e-01 8.04e-01h  1
 104 -6.0722340e+00 4.92e-01 6.72e+00  -7.5 1.03e+02    -  1.00e+00 8.96e-01h  1
 105 -6.0722309e+00 2.60e-03 9.93e-03  -7.5 1.23e+01    -  1.00e+00 1.00e+00h  1
 106 -6.0722309e+00 8.91e-08 6.07e-08  -7.5 7.74e-02    -  1.00e+00 1.00e+00h  1
 107 -6.0722324e+00 3.63e-03 6.79e-01  -9.0 1.79e+01    -  9.19e-01 8.45e-01h  1
 108 -6.0722326e+00 1.23e-04 4.84e-04  -9.0 2.77e+00    -  1.00e+00 1.00e+00h  1
 109 -6.0722326e+00 2.69e-10 4.42e-09  -9.0 2.01e-03    -  1.00e+00 1.00e+00h  1

Number of Iterations....: 109

                                   (scaled)                 (unscaled)
Objective...............:  -4.7439317285234441e+00   -6.0722326125100086e+00
Dual infeasibility......:   4.4245083134070380e-09    5.6633706411610084e-09
Constraint violation....:   2.6905075758455743e-10    2.6905075758455743e-10
Complementarity.........:   1.1109250334075937e-09    1.4219840427617200e-09
Overall NLP error.......:   4.4245083134070380e-09    5.6633706411610084e-09


Number of objective function evaluations             = 125
Number of objective gradient evaluations             = 110
Number of equality constraint evaluations            = 125
Number of inequality constraint evaluations          = 125
Number of equality constraint Jacobian evaluations   = 114
Number of inequality constraint Jacobian evaluations = 114
Number of Lagrangian Hessian evaluations             = 109
Total CPU secs in IPOPT (w/o function evaluations)   =    241.846
Total CPU secs in NLP function evaluations           =      4.107

EXIT: Optimal Solution Found.
